10
-1 31 51 33 82 1 12 11 29 33 
70 -1 77 45 61 14 34 15 28 58 
62 52 -1 17 48 6 86 92 15 85 
62 76 25 -1 52 39 91 7 6 18 
71 90 47 84 -1 68 88 42 75 72 
64 27 87 24 12 -1 0 26 8 68 
55 79 92 69 0 28 -1 44 18 16 
94 81 51 5 14 77 6 -1 44 56 
97 45 60 5 58 12 90 45 -1 14 
93 42 78 49 60 59 76 2 60 -1 
